c generated by sgen
p cnf 81 172
-2 -3 -4 0
-1 -3 -4 0
-1 -2 -4 0
-1 -2 -3 0
-6 -7 -8 0
-5 -7 -8 0
-5 -6 -8 0
-5 -6 -7 0
-10 -11 -12 0
-9 -11 -12 0
-9 -10 -12 0
-9 -10 -11 0
-14 -15 -16 0
-13 -15 -16 0
-13 -14 -16 0
-13 -14 -15 0
-18 -19 -20 0
-17 -19 -20 0
-17 -18 -20 0
-17 -18 -19 0
-22 -23 -24 0
-21 -23 -24 0
-21 -22 -24 0
-21 -22 -23 0
-26 -27 -28 0
-25 -27 -28 0
-25 -26 -28 0
-25 -26 -27 0
-30 -31 -32 0
-29 -31 -32 0
-29 -30 -32 0
-29 -30 -31 0
-34 -35 -36 0
-33 -35 -36 0
-33 -34 -36 0
-33 -34 -35 0
-38 -39 -40 0
-37 -39 -40 0
-37 -38 -40 0
-37 -38 -39 0
-42 -43 -44 0
-41 -43 -44 0
-41 -42 -44 0
-41 -42 -43 0
-46 -47 -48 0
-45 -47 -48 0
-45 -46 -48 0
-45 -46 -47 0
-50 -51 -52 0
-49 -51 -52 0
-49 -50 -52 0
-49 -50 -51 0
-54 -55 -56 0
-53 -55 -56 0
-53 -54 -56 0
-53 -54 -55 0
-58 -59 -60 0
-57 -59 -60 0
-57 -58 -60 0
-57 -58 -59 0
-62 -63 -64 0
-61 -63 -64 0
-61 -62 -64 0
-61 -62 -63 0
-66 -67 -68 0
-65 -67 -68 0
-65 -66 -68 0
-65 -66 -67 0
-70 -71 -72 0
-69 -71 -72 0
-69 -70 -72 0
-69 -70 -71 0
-74 -75 -76 0
-73 -75 -76 0
-73 -74 -76 0
-73 -74 -75 0
-77 -78 -79 0
-77 -78 -80 0
-77 -78 -81 0
-77 -79 -80 0
-77 -79 -81 0
-77 -80 -81 0
-78 -79 -80 0
-78 -79 -81 0
-78 -80 -81 0
-79 -80 -81 0
31 50 17 0
8 50 17 0
8 31 17 0
8 31 50 0
71 30 9 0
38 30 9 0
38 71 9 0
38 71 30 0
69 56 18 0
15 56 18 0
15 69 18 0
15 69 56 0
26 2 42 0
36 2 42 0
36 26 42 0
36 26 2 0
23 41 55 0
68 41 55 0
68 23 55 0
68 23 41 0
66 6 40 0
58 6 40 0
58 66 40 0
58 66 6 0
73 62 72 0
44 62 72 0
44 73 72 0
44 73 62 0
76 53 33 0
29 53 33 0
29 76 33 0
29 76 53 0
11 25 75 0
67 25 75 0
67 11 75 0
67 11 25 0
45 81 27 0
37 81 27 0
37 45 27 0
37 45 81 0
54 3 47 0
7 3 47 0
7 54 47 0
7 54 3 0
39 4 49 0
61 4 49 0
61 39 49 0
61 39 4 0
5 34 16 0
22 34 16 0
22 5 16 0
22 5 34 0
74 48 20 0
78 48 20 0
78 74 20 0
78 74 48 0
60 10 24 0
52 10 24 0
52 60 24 0
52 60 10 0
77 63 65 0
13 63 65 0
13 77 65 0
13 77 63 0
51 35 70 0
79 35 70 0
79 51 70 0
79 51 35 0
32 1 80 0
57 1 80 0
57 32 80 0
57 32 1 0
12 43 46 0
14 43 46 0
14 12 46 0
14 12 43 0
64 21 19 0
64 21 59 0
64 21 28 0
64 19 59 0
64 19 28 0
64 59 28 0
21 19 59 0
21 19 28 0
21 59 28 0
19 59 28 0
